src/asp/benchmarks/medium3.lp
citta(orvieto).
citta(assisi).
citta(umbertide).
citta(castiglione_del_lago).
citta(marsciano).
citta(bastia_umbra).
citta(citta_di_castello).
citta(gubbio).
citta(todi).
citta(corciano).

richiesta(orvieto, strade, 102).
richiesta(orvieto, fiumi, 75).
richiesta(orvieto, scuole, 65).
richiesta(orvieto, parchi, 223).
richiesta(orvieto, energia, 282).

richiesta(assisi, strade, 13).
richiesta(assisi, fiumi, 181).
richiesta(assisi, scuole, 353).
richiesta(assisi, parchi, 182).
richiesta(assisi, energia, 234).

richiesta(umbertide, strade, 165).
richiesta(umbertide, fiumi, 205).
richiesta(umbertide, scuole, 267).
richiesta(umbertide, parchi, 112).
richiesta(umbertide, energia, 465).

richiesta(castiglione_del_lago, strade, 73).
richiesta(castiglione_del_lago, fiumi, 252).
richiesta(castiglione_del_lago, scuole, 151).
richiesta(castiglione_del_lago, parchi, 32).
richiesta(castiglione_del_lago, energia, 76).

richiesta(marsciano, strade, 194).
richiesta(marsciano, fiumi, 235).
richiesta(marsciano, scuole, 21).
richiesta(marsciano, parchi, 297).
richiesta(marsciano, energia, 16).

richiesta(bastia_umbra, strade, 94).
richiesta(bastia_umbra, fiumi, 102).
richiesta(bastia_umbra, scuole, 468).
richiesta(bastia_umbra, parchi, 325).
richiesta(bastia_umbra, energia, 76).

richiesta(citta_di_castello, strade, 69).
richiesta(citta_di_castello, fiumi, 139).
richiesta(citta_di_castello, scuole, 84).
richiesta(citta_di_castello, parchi, 183).
richiesta(citta_di_castello, energia, 34).

richiesta(gubbio, strade, 266).
richiesta(gubbio, fiumi, 238).
richiesta(gubbio, scuole, 140).
richiesta(gubbio, parchi, 18).
richiesta(gubbio, energia, 259).

richiesta(todi, strade, 1379).
richiesta(todi, fiumi, 81).
richiesta(todi, scuole, 290).
richiesta(todi, parchi, 222).
richiesta(todi, energia, 135).

richiesta(corciano, strade, 141).
richiesta(corciano, fiumi, 467).
richiesta(corciano, scuole, 263).
richiesta(corciano, parchi, 214).
richiesta(corciano, energia, 21).

