src/minizinc/benchmarks/medium3.dzn
COMUNI = {
	gualdo_tardino,
	gubbio,
	castiglione_del_lago,
	spoleto,
	narni,
	terni,
	umbertide,
	foligno,
	orvieto,
	todi,
};

NUMERO_COMUNI = 10;

ABITANTI_PER_COMUNE = [14, 30, 15, 36, 17, 106, 16, 55, 19, 15];

STRADE_TRA_COMUNI = [|
	false, true, false, false, false, false, false, false, false, false |
	true, false, false, false, false, false, true, false, false, false |
	false, false, false, false, false, false, false, false, false, false |
	false, false, false, false, false, true, false, false, false, false |
	false, false, false, false, false, true, false, false, false, false |
	false, false, false, true, true, false, false, false, false, false |
	false, true, false, false, false, false, false, false, false, false |
	false, false, false, false, false, false, false, false, false, false |
	false, false, false, false, false, false, false, false, false, true |
	false, false, false, false, false, false, false, false, true, false |
|];

RICHIESTE = [|
	174, 58, 294, 223, 269 |
	50, 71, 290, 310, 324 |
	132, 24, 70, 334, 13 |
	146, 24, 5, 124, 279 |
	205, 323, 181, 109, 213 |
	231, 550, 142, 127, 71 |
	220, 365, 150, 125, 1 |
	194, 394, 168, 91, 120 |
	96, 99, 256, 253, 153 |
	348, 131, 114, 652, 681 |
|];
